plants = { Rose, Tulip, Daisy, Orchid, Lavender, Sunflower, Walnut, Iris, Basil, Fern };
pStats = {plantName, plantType, soilType, shadeType, watering, season};
plantType = {Fruit, Vegetable, Tree, Herb};
soilType = {Normal, Clay, Dry};
shadeType = {fullShade, halfShade, fullSun};
watering = {Rare, Occasional, SemiFrequent, Frequent, Often};
season = {Spring, Summer, Autumn, Winter};

plantStats = [|
    Rose, Fruit, Clay, FullSun, Frequent, Summer |  % Rose
    Tulip, Vegetable, Normal, FullShade, Occasional, Spring |  % Tulip
    Daisy, Herb, Dry, HalfShade, Rare, Autumn |  % Daisy
    Orchid, Fruit, Clay, FullSun, Often, Summer |  % Orchid
    Lavender, Vegetable, Normal, FullShade, SemiFrequent, Winter |  % Lavender
    Sunflower, Tree, Dry, HalfShade, Occasional, Spring |  % Sunflower
    Walnut, Herb, Normal, FullSun, Frequent, Autumn |  % Walnut
    Iris, Fruit, Clay, HalfShade, Rare, Winter |  % Iris
    Basil, Vegetable, Dry, FullShade, Often, Spring |  % Basil
    Fern, Tree, Normal, FullSun, SemiFrequent, Summer |  % Fern
];
